9266 4911
6895 8457
2636 1324
9230 610
2973 1522
3117 5755
9704 5478
5443 3446
865 8105
2785 5886
5494 1838
5237 3988
3981 1479
7026 1233
3890 2337
3961 2507
5110 5225
2897 1352
9023 4765
4284 2340
5500 5017
6408 2867
5498 8714
2484 643
7264 8185
6278 2666
5490 1528
9956 6003
3793 2037
2557 1133
1295 5491
4518 2225
5194 3497
8836 4529
7230 4320
4943 3198
4716 4867
6681 9319
7850 8818
7703 3109
6556 9486
5237 3196
3800 7604
9453 8408
2986 1145
2723 1003
3737 2514
3203 1588
1353 9586
5781 4717
